language ESSENCE' 1.0
letting AssignmentMatrix be [[0, 0, 0, 0, 0, 0, 0, 0, 0, 0, 0, 0, 0, 0, 1, 1, 1, 1, 1, 1, 1, 1, 1, 1, 1, 1], 
[0, 1, 1, 0, 0, 0, 1, 1, 1, 1, 0, 1, 1, 1, 0, 0, 0, 0, 0, 0, 0, 0, 0, 0, 0, 0], 
[0, 0, 0, 0, 0, 0, 0, 0, 0, 0, 0, 0, 0, 0, 0, 0, 0, 0, 0, 0, 0, 0, 0, 0, 0, 0], 
[1, 0, 0, 1, 1, 1, 0, 0, 0, 0, 0, 0, 0, 0, 0, 0, 0, 0, 0, 0, 0, 0, 0, 0, 0, 0], 
[0, 0, 0, 0, 0, 0, 0, 0, 0, 0, 0, 0, 0, 0, 0, 0, 0, 0, 0, 0, 0, 0, 0, 0, 1, 1]]
letting CPU be [4, 2, 2, 4, 4, 4, 2, 2, 4, 2, 52, 2, 2, 2, 2, 2, 2, 2, 2, 2, 2, 2, 2, 2, 8, 8]
letting Memory be [7500, 3750, 3750, 7500, 7500, 7500, 3750, 3750, 7500, 3750, 976000, 3750, 3750, 3750, 3750, 3750, 3750, 3750, 3750, 3750, 3750, 3750, 3750, 3750, 15000, 15000]
letting Price be [210, 116, 126, 210, 210, 210, 116, 116, 210, 116, 1, 116, 116, 116, 116, 116, 116, 116, 116, 116, 126, 116, 116, 116, 420, 420]
letting Storage be [2000, 2000, 2000, 2000, 2000, 2000, 2000, 2000, 2000, 2000, 12023, 2000, 2000, 2000, 2000, 2000, 2000, 2000, 2000, 2000, 2000, 2000, 2000, 2000, 2000, 2000]
letting VMType be [341, 433, 477, 341, 341, 341, 433, 433, 341, 433, 1, 433, 433, 433, 433, 433, 433, 433, 433, 433, 464, 433, 433, 433, 278, 278]
